p cnf 55 131
c ind 49 51 52 53 46 47 48 50 1 0
c ret 30 39 40 41 42 43 44 45 31 32 0
c ret 33 34 35 36 37 38 0
2 -3 25 -27 42 0
2 -3 -25 -27 -42 0
-2 27 0
-2 25 -42 0
-2 3 0
-2 -25 42 0
3 -4 -7 -8 38 0
3 -4 7 -8 -38 0
-3 8 0
-3 -7 -38 0
-3 4 0
-3 7 38 0
4 -5 -41 0
4 5 41 0
-4 -5 41 0
-4 5 -41 0
5 -6 33 0
5 6 -33 0
-5 -6 -33 0
-5 6 33 0
6 36 -37 0
6 -36 37 0
-6 -36 -37 0
-6 36 37 0
-6 7 30 0
6 7 -30 0
-6 -7 -30 0
6 -7 30 0
8 9 -19 20 -21 0
8 9 19 -20 -21 0
-8 21 0
-8 -19 -20 0
-8 -9 0
-8 19 20 0
9 -10 -11 -12 -13 0
-9 13 0
-9 10 0
-9 12 0
-9 11 0
10 51 52 53 0
-10 -51 0
-10 -53 0
-10 -52 0
11 47 48 49 50 0
-11 -50 0
-11 -49 0
-11 -47 0
-11 -48 0
12 38 41 43 46 0
-12 -46 0
-12 -43 0
-12 -38 0
-12 -41 0
13 14 -15 45 53 0
13 14 -15 -45 -53 0
-13 -14 0
-13 45 -53 0
-13 15 0
-13 -45 53 0
14 -44 52 0
-14 44 0
-14 -52 0
15 -16 -18 39 47 0
15 -16 -18 -39 -47 0
-15 18 0
-15 -39 47 0
-15 16 0
-15 39 -47 0
16 -17 -42 -50 0
16 -17 42 50 0
-16 17 0
-16 -42 50 0
-16 42 -50 0
17 -44 -48 0
17 40 52 0
17 40 -44 0
17 -48 52 0
-17 -40 48 0
-17 44 -52 0
18 -40 46 0
18 -38 48 0
18 -38 -40 0
18 46 48 0
-18 40 -48 0
-18 38 -46 0
19 -31 -39 0
19 31 39 0
-19 31 -39 0
-19 -31 39 0
6 20 -30 0
-20 30 0
-6 -20 0
21 -22 40 -44 45 0
-21 44 0
-21 -45 0
-21 -40 0
-21 22 0
22 -23 -24 30 31 0
-22 -30 0
-22 24 0
-22 23 0
-22 -31 0
23 36 37 0
-23 -36 0
-23 -37 0
24 32 33 34 35 0
-24 -35 0
-24 -34 0
-24 -32 0
-24 -33 0
25 -26 34 0
25 26 -34 0
-25 -26 -34 0
-25 26 34 0
-6 26 -33 0
-26 33 0
6 -26 0
27 -28 43 0
27 28 -43 0
-27 -28 -43 0
-27 28 43 0
28 -29 -35 0
28 29 35 0
-28 -29 35 0
-28 29 -35 0
-26 29 -34 0
-29 34 0
26 -29 0
1 2 0
-1 -2 0
54 0

